solution status: optimal solution found
objective value:                                   18
x43                                                 1 	(obj:1)
x45                                                 1 	(obj:1)
x46                                                 1 	(obj:1)
x47                                                 1 	(obj:1)
x48                                                 1 	(obj:1)
x49                                                 1 	(obj:1)
x50                                                 1 	(obj:1)
x52                                                 1 	(obj:1)
x54                                                 1 	(obj:1)
x68                                                 1 	(obj:1)
x70                                                 1 	(obj:1)
x72                                                 1 	(obj:1)
x75                                                 1 	(obj:1)
x76                                                 1 	(obj:1)
x77                                                 1 	(obj:1)
x78                                                 1 	(obj:1)
x79                                                 1 	(obj:1)
x80                                                 1 	(obj:1)
one.pinholes[2].hole_out_c_y                       13 	(obj:0)
one.pinholes[2].hole_out_c_z                       19 	(obj:0)
one.ctrl_a[11].flush_y                              5 	(obj:0)
one.ctrl_a[11].flush_z                             15 	(obj:0)
one.pinholes[1].hole_out_c_y                       16 	(obj:0)
one.pinholes[1].hole_out_c_z                       18 	(obj:0)
$_19__9_y                                          18 	(obj:0)
$_19__9_z                                          15 	(obj:0)
one.thingy.devices[0].thingy.vs3_y                   13 	(obj:0)
one.thingy.devices[0].thingy.vs3_z                   17 	(obj:0)
$_18__9_y                                          18 	(obj:0)
$_18__9_z                                          13 	(obj:0)
one.thingy.devices[3].thingy.vs3_y                    4 	(obj:0)
one.thingy.devices[3].thingy.vs3_z                   15 	(obj:0)
one.pinholes[0].hole_out_c_y                       19 	(obj:0)
one.pinholes[0].hole_out_c_z                       11 	(obj:0)
one.ctrl_a[10].flush_y                              3 	(obj:0)
one.ctrl_a[10].flush_z                             13 	(obj:0)
one.ctrl_a[10].hole_y                              13 	(obj:0)
one.ctrl_a[10].hole_z                              13 	(obj:0)
one.ctrl_a[11].hole_y                              15 	(obj:0)
one.ctrl_a[11].hole_z                              11 	(obj:0)
$_21__9_y                                          11 	(obj:0)
$_21__9_z                                          19 	(obj:0)
one.thingy.devices[1].thingy.vs3_y                   11 	(obj:0)
one.thingy.devices[1].thingy.vs3_z                   15 	(obj:0)
one.thingy.devices[2].thingy.vs3_y                    7 	(obj:0)
one.thingy.devices[2].thingy.vs3_z                   15 	(obj:0)
one.pinholes[3].hole_out_c_y                        9 	(obj:0)
one.pinholes[3].hole_out_c_z                       19 	(obj:0)
